(set-info :Origin "This instance was generated by: BanditFuzz-- an RL fuzzer for SMT solvers" )
(set-info :Author "Joe Scott, Fed Mora, Vijay Ganesh" )
(set-info :Contact "Joe Scott, joseph.scott@uwaterloo.ca")
(set-logic QF_BV)
(declare-const bool_0 Bool)
(declare-const bool_1 Bool)
(declare-const bool_2 Bool)
(declare-const bool_3 Bool)
(declare-const bool_4 Bool)
(declare-const bv_0 (_ BitVec 32))
(declare-const bv_1 (_ BitVec 32))
(declare-const bv_2 (_ BitVec 32))
(declare-const bv_3 (_ BitVec 32))
(declare-const bv_4 (_ BitVec 32))
(assert (bvugt (bvsdiv (bvnand bv_0 #x4fcdf7fd ) (bvxnor bv_4 bv_1)) (bvnand (bvor #x0ea95c93  #x76496d15 ) (bvxnor #xc1d7fd40  #xe746ecd6 ))))
(assert (bvult (bvashr (bvand bv_1 #x3fe56c9c ) (bvnor #x16c8a281  #x7566c875 )) (bvadd (bvadd #x2b8be238  bv_4) (bvnor #x1c2b5635  bv_1))))
(assert (xor (bvsgt (bvurem bv_0 bv_2) (bvashr bv_0 #x0dbe3c90 )) (bvuge (bvmul bv_4 bv_2) (bvor bv_4 #xfa609bfa ))))
(assert (bvuge (bvnand (bvurem bv_2 bv_4) (bvnor bv_4 #xd8dd5c02 )) (bvudiv (bvsrem #x693441f6  bv_4) (bvashr #xc902c8c1  bv_4))))
(assert (bvsge (bvsdiv (bvand bv_2 bv_0) (bvmul bv_4 bv_3)) (bvshl (bvsmod #xc8c02275  #x07a78cad ) (bvmul bv_4 bv_4))))
(check-sat)
(exit)
